(set-option :produce-models true)
(set-logic QF_UF)
(declare-fun p12() Bool)
(declare-fun p59() Bool)
(declare-fun p0() Bool)
(declare-fun p107() Bool)
(declare-fun p18() Bool)
(declare-fun p3() Bool)
(declare-fun p75() Bool)
(declare-fun p93() Bool)
(declare-fun p99() Bool)
(declare-fun p114() Bool)
(declare-fun p86() Bool)
(declare-fun p4() Bool)
(declare-fun p21() Bool)
(declare-fun p111() Bool)
(declare-fun p29() Bool)
(declare-fun p88() Bool)
(declare-fun p62() Bool)
(declare-fun p74() Bool)
(declare-fun p69() Bool)
(declare-fun p54() Bool)
(declare-fun p95() Bool)
(declare-fun p97() Bool)
(declare-fun p106() Bool)
(declare-fun p7() Bool)
(declare-fun p79() Bool)
(declare-fun p117() Bool)
(declare-fun p112() Bool)
(declare-fun p22() Bool)
(declare-fun p8() Bool)
(declare-fun p102() Bool)
(declare-fun p26() Bool)
(declare-fun p5() Bool)
(declare-fun p119() Bool)
(declare-fun p45() Bool)
(declare-fun p30() Bool)
(declare-fun p92() Bool)
(declare-fun p27() Bool)
(declare-fun p50() Bool)
(declare-fun p52() Bool)
(declare-fun p25() Bool)
(declare-fun p44() Bool)
(declare-fun p10() Bool)
(declare-fun p40() Bool)
(declare-fun p66() Bool)
(declare-fun p55() Bool)
(declare-fun p84() Bool)
(declare-fun p118() Bool)
(declare-fun p9() Bool)
(declare-fun p110() Bool)
(declare-fun p48() Bool)
(declare-fun p67() Bool)
(declare-fun p38() Bool)
(declare-fun p98() Bool)
(declare-fun p31() Bool)
(declare-fun p100() Bool)
(declare-fun p43() Bool)
(declare-fun p36() Bool)
(declare-fun p49() Bool)
(declare-fun p87() Bool)
(declare-fun p11() Bool)
(declare-fun p6() Bool)
(declare-fun p13() Bool)
(declare-fun p113() Bool)
(declare-fun p51() Bool)
(declare-fun p57() Bool)
(declare-fun p78() Bool)
(declare-fun p70() Bool)
(declare-fun p68() Bool)
(declare-fun p35() Bool)
(declare-fun p14() Bool)
(declare-fun p64() Bool)
(declare-fun p72() Bool)
(declare-fun p61() Bool)
(declare-fun p20() Bool)
(declare-fun p101() Bool)
(declare-fun p77() Bool)
(declare-fun p108() Bool)
(declare-fun p37() Bool)
(declare-fun p17() Bool)
(declare-fun p94() Bool)
(declare-fun p47() Bool)
(declare-fun p109() Bool)
(declare-fun p80() Bool)
(declare-fun p105() Bool)
(declare-fun p16() Bool)
(declare-fun p103() Bool)
(declare-fun p56() Bool)
(declare-fun p73() Bool)
(declare-fun p81() Bool)
(declare-fun p96() Bool)
(declare-fun p115() Bool)
(declare-fun p46() Bool)
(declare-fun p71() Bool)
(declare-fun p2() Bool)
(declare-fun p76() Bool)
(declare-fun p42() Bool)
(declare-fun p1() Bool)
(declare-fun p85() Bool)
(declare-fun p91() Bool)
(declare-fun p19() Bool)
(declare-fun p53() Bool)
(declare-fun p33() Bool)
(declare-fun p90() Bool)
(declare-fun p32() Bool)
(declare-fun p41() Bool)
(declare-fun p58() Bool)
(declare-fun p39() Bool)
(declare-fun p82() Bool)
(declare-fun p89() Bool)
(declare-fun p83() Bool)
(declare-fun p23() Bool)
(declare-fun p65() Bool)
(declare-fun p34() Bool)
(declare-fun p60() Bool)
(declare-fun p116() Bool)
(declare-fun p104() Bool)
(declare-fun p15() Bool)
(declare-fun p28() Bool)
(declare-fun p63() Bool)
(declare-fun p24() Bool)
(assert
(and (or (not p12) p59 p0) (or (not p107) p12 p18) (or p107 p3 p75) (or p93 p99 p114) (or (not p86) p4 (not p21)) (or (not p111) p29 (not p88)) (or p62 p74 p69) (or p54 (not p21) (not p95)) (or (not p97) p106 (not p7)) (or p79 p117 (not p112)) (or (not p22) p8 p102) (or p26 p5 (not p119)) (or (not p45) (not p111) (not p86)) (or p30 (not p92) (not p27)) (or p50 p52 (not p21)) (or p25 (not p44) (not p92)) (or p10 p40 (not p66)) (or p97 (not p27) p55) (or p79 (not p84) p50) (or p118 (not p21) (not p50)) (or p8 p30 p9) (or (not p110) (not p48) p67) (or (not p38) p98 (not p31)) (or p100 p26 p22) (or p7 p43 (not p36)) (or p49 (not p87) (not p49)) (or (not p55) (not p44) (not p29)) (or (not p11) (not p6) (not p86)) (or (not p98) p93 p87) (or p13 p97 p113) (or p51 (not p29) (not p4)) (or p87 (not p57) p78) (or (not p70) p48 p102) (or (not p68) p35 (not p14)) (or (not p64) p72 p18) (or p30 (not p10) (not p44)) (or p112 p59 (not p61)) (or p20 (not p101) (not p57)) (or (not p77) (not p108) p110) (or (not p61) p37 (not p17)) (or (not p75) (not p37) p119) (or (not p72) p94 (not p47)) (or (not p21) (not p114) p109) (or p61 p106 (not p93)) (or p80 (not p105) (not p16)) (or (not p103) p97 p56) (or (not p73) (not p75) (not p81)) (or (not p94) (not p95) p94) (or p96 (not p21) p93) (or p115 p46 (not p22)) (or (not p71) p103 p2) (or p48 p114 p36) (or p12 p81 (not p103)) (or (not p25) p71 (not p111)) (or p47 (not p55) p76) (or (not p98) p61 p27) (or (not p69) (not p42) p56) (or p25 (not p100) (not p64)) (or p36 p43 p8) (or p57 (not p7) (not p6)) (or p110 (not p70) p78) (or (not p1) p85 p30) (or p112 p94 p112) (or p119 p4 p109) (or (not p7) (not p91) (not p5)) (or (not p27) (not p108) p99) (or p105 (not p111) (not p19)) (or p109 p57 (not p91)) (or p44 (not p113) p80) (or p80 p53 p35) (or p48 (not p99) p46) (or p6 p95 (not p61)) (or p36 p62 (not p55)) (or (not p113) p3 (not p105)) (or p64 p85 p99) (or p33 p106 p98) (or p37 (not p112) p59) (or (not p66) p48 (not p9)) (or p3 (not p62) p100) (or (not p90) (not p101) p100) (or p35 (not p37) (not p29)) (or p42 p32 (not p27)) (or (not p41) p49 p1) (or p38 (not p61) (not p25)) (or (not p1) p72 p71) (or p25 (not p58) p18) (or p58 p102 p55) (or (not p33) (not p40) p9) (or p39 p61 (not p82)) (or (not p119) p29 (not p48)) (or (not p91) p16 p81) (or (not p110) p89 p83) (or p99 p83 p78) (or p94 (not p106) (not p30)) (or (not p14) p82 (not p57)) (or (not p82) (not p73) p29) (or (not p67) (not p9) p71) (or (not p44) p83 p52) (or p66 (not p11) (not p23)) (or p29 p68 p72) (or (not p112) (not p65) p11) (or p16 (not p16) p106) (or p90 (not p42) (not p43)) (or (not p14) (not p86) p7) (or p14 (not p73) p97) (or p39 (not p50) p58) (or p58 p108 p70) (or (not p65) p9 p74) (or p0 (not p1) p69) (or p3 p110 (not p43)) (or (not p44) (not p42) (not p18)) (or (not p80) p108 (not p42)) (or p48 (not p31) (not p64)) (or (not p103) p7 p91) (or p97 p70 p34) (or (not p91) p66 p67) (or p90 p119 (not p60)) (or p50 (not p88) p41) (or p107 p37 (not p53)) (or p37 (not p54) (not p89)) (or p18 (not p87) (not p12)) (or (not p31) p92 (not p29)) (or (not p95) (not p0) p4) (or (not p5) p47 p17) (or p75 p87 (not p58)) (or (not p102) p92 (not p53)) (or (not p9) (not p52) p67) (or p5 p100 p45) (or (not p56) (not p93) (not p97)) (or p58 (not p116) p21) (or p80 p17 p109) (or (not p2) (not p22) (not p18)) (or (not p31) (not p30) (not p9)) (or (not p14) p27 p12) (or p104 (not p119) p104) (or p104 p109 p9) (or (not p80) (not p26) p99) (or (not p85) p29 p22) (or p111 (not p3) (not p96)) (or p10 p114 p25) (or (not p61) p71 p114) (or (not p70) (not p62) (not p34)) (or (not p79) p113 p0) (or p91 (not p15) (not p109)) (or p2 (not p102) p89) (or p25 p21 (not p65)) (or p83 p3 (not p3)) (or (not p52) (not p37) p71) (or p77 (not p67) (not p59)) (or p25 p11 (not p40)) (or (not p30) p47 p1) (or (not p58) (not p19) p113) (or (not p33) p13 p68) (or (not p39) p54 (not p99)) (or (not p12) p78 p61) (or (not p114) p70 p20) (or (not p4) p22 (not p14)) (or (not p39) p46 p7) (or (not p76) (not p56) (not p99)) (or (not p36) p90 (not p110)) (or (not p87) p29 (not p15)) (or p106 p51 p3) (or p118 (not p4) p47) (or p17 (not p68) p20) (or (not p37) (not p15) (not p55)) (or (not p112) (not p17) p34) (or p86 p77 p98) (or p34 p26 p105) (or p20 (not p68) p71) (or p49 (not p9) p81) (or p51 (not p40) p6) (or (not p119) (not p65) p98) (or p56 (not p70) (not p77)) (or p55 p69 (not p33)) (or (not p26) (not p112) p73) (or p96 p10 p41) (or p86 p85 (not p107)) (or (not p66) p80 (not p73)) (or (not p12) p60 (not p46)) (or p28 p113 (not p66)) (or p61 (not p62) p7) (or p33 p31 p66) (or (not p94) p32 p23) (or (not p84) (not p115) p44) (or p9 (not p99) (not p44)) (or (not p89) p7 p6) (or p63 (not p55) p119) (or p34 (not p9) p63) (or (not p104) p100 p47) (or p92 p108 p95) (or p84 (not p106) p76) (or (not p35) p86 p46) (or p95 (not p107) p13) (or p63 (not p20) p64) (or p112 (not p113) (not p51)) (or p69 (not p50) (not p18)) (or p102 (not p77) (not p57)) (or p81 p70 (not p3)) (or p104 p119 p20) (or p95 (not p1) (not p19)) (or p54 (not p44) (not p43)) (or (not p20) (not p42) p96) (or (not p3) p84 p12) (or p20 p84 (not p11)) (or (not p45) (not p67) p35) (or p91 p22 p61) (or (not p7) p84 (not p49)) (or (not p60) (not p74) (not p96)) (or (not p104) p73 p92) (or (not p79) (not p74) (not p55)) (or (not p39) p36 (not p104)) (or p23 p67 p38) (or p38 p47 p85) (or p46 p88 p84) (or (not p88) (not p75) p43) (or p94 (not p50) p55) (or p13 (not p92) (not p98)) (or p41 (not p27) p59) (or (not p107) (not p30) (not p39)) (or (not p0) p118 p112) (or p117 p14 p48) (or (not p97) (not p99) p1) (or (not p117) p14 (not p19)) (or (not p45) (not p4) p81) (or (not p33) (not p28) (not p0)) (or p71 p3 (not p106)) (or (not p59) p4 (not p67)) (or p19 p115 (not p15)) (or (not p54) (not p94) p34) (or p45 (not p63) p57) (or p90 (not p35) p2) (or (not p75) (not p20) (not p2)) (or (not p11) p22 (not p26)) (or (not p13) (not p20) p85) (or (not p90) (not p21) (not p5)) (or (not p6) p101 (not p62)) (or p104 p96 (not p103)) (or (not p68) (not p21) p114) (or p115 p47 (not p36)) (or (not p81) (not p97) (not p49)) (or p3 (not p94) p63) (or p20 p56 p63) (or p48 p64 (not p117)) (or p66 (not p7) (not p48)) (or p28 (not p119) (not p48)) (or (not p20) (not p51) (not p105)) (or p96 p6 (not p34)) (or (not p46) p44 p45) (or p58 (not p54) p9) (or p101 p54 p12) (or (not p20) p88 (not p81)) (or p112 (not p103) (not p73)) (or p85 (not p110) (not p78)) (or (not p74) p86 (not p59)) (or (not p3) p48 p42) (or p112 p56 p42) (or p92 p59 p106) (or (not p75) p11 p4) (or p17 p32 p83) (or (not p54) (not p28) (not p9)) (or p1 p37 p70) (or (not p104) p55 (not p49)) (or (not p95) (not p12) p64) (or p9 p96 (not p26)) (or (not p103) p62 (not p23)) (or (not p14) p35 (not p86)) (or p92 p79 (not p39)) (or (not p64) (not p24) p73) (or p53 (not p27) p94) (or (not p56) (not p63) p43) (or (not p105) (not p31) (not p79)) (or (not p12) (not p53) (not p93)) (or p19 p8 (not p48)) (or p12 (not p78) (not p86)) (or (not p67) (not p43) (not p105)) (or (not p8) p56 (not p76)) (or p19 (not p20) (not p117)) (or p63 p84 p39) (or p90 (not p100) p95) (or (not p70) p94 (not p19)) (or p75 (not p35) p52) (or (not p15) (not p20) p55) (or p62 (not p1) p1) (or (not p55) p80 p7) (or p46 (not p75) p77) (or (not p100) p2 (not p15)) (or p26 p60 p23) (or p71 p46 p37) (or p73 (not p22) (not p56)) (or (not p74) p82 (not p58)) (or p57 p105 (not p113)) (or (not p34) p80 (not p90)) (or (not p59) p54 p2) (or p102 (not p2) p7) (or (not p44) p62 p50) (or (not p110) (not p50) (not p72)) (or (not p69) p112 p32) (or p108 (not p51) (not p78)) (or p70 p21 (not p100)) (or (not p63) p59 (not p38)) (or p0 (not p64) (not p75)) (or (not p58) (not p8) (not p37)) (or (not p31) p22 (not p13)) (or p73 p57 p58) (or (not p13) (not p106) p75) (or p108 p104 (not p102)) (or (not p5) (not p58) (not p95)) (or p117 p75 p6) (or p79 (not p73) (not p23)) (or p91 p37 p48) (or (not p73) (not p49) p38) (or p84 (not p106) (not p60)) (or p77 (not p64) p89) (or (not p99) p89 (not p87)) (or p14 p100 (not p34)) (or p112 p14 p110) (or p115 p118 p80) (or p73 (not p82) (not p50)) (or p29 p86 (not p21)) (or (not p77) (not p18) p7) (or (not p39) (not p71) (not p63)) (or (not p86) (not p90) (not p104)) (or (not p36) p12 (not p39)) (or (not p4) p29 (not p8)) (or p64 (not p54) p66) (or (not p44) (not p85) p110) (or p77 (not p77) (not p117)) (or (not p55) p85 (not p47)) (or (not p90) (not p63) p16) (or (not p58) p56 (not p89)) (or (not p19) (not p12) (not p105)) (or (not p38) p72 (not p2)) (or (not p93) (not p1) p107) (or (not p14) (not p50) p19) (or p119 p34 (not p91)) (or (not p68) p0 (not p116)) (or (not p93) p41 p28) (or (not p15) p114 (not p93)) (or (not p1) p72 p84) (or p6 (not p115) p73) (or (not p28) p74 (not p67)) (or p13 p52 p88) (or (not p75) p73 p68) (or (not p10) p110 (not p108)) (or p75 p73 p3) (or (not p86) (not p33) (not p32)) (or p31 p69 p50) (or p112 p117 (not p83)) (or p103 p101 (not p100)) (or (not p15) p42 p31) (or (not p25) p82 (not p105)) (or p71 (not p97) (not p27)) (or p8 p107 p25) (or (not p12) (not p24) (not p2)) (or p48 (not p4) p42) (or (not p87) p45 (not p13)) (or p92 (not p72) (not p1)) (or p36 (not p4) p83) (or (not p94) p69 (not p4)) (or (not p6) p69 (not p92)) (or (not p89) (not p16) (not p2)) (or p5 (not p5) (not p67)) (or (not p103) (not p71) p113) (or p73 (not p19) p73) (or p8 p68 (not p1)) (or (not p88) p75 (not p10)) (or p94 p45 p51) (or p33 (not p105) (not p53)) (or p46 (not p33) (not p38)) (or p90 p31 (not p30)) (or (not p43) p26 (not p60)) (or (not p119) p78 p75) (or p38 p59 (not p52)) (or p72 (not p85) (not p92)) (or p66 p64 p51) (or p13 p21 (not p56)) (or p90 (not p73) p86) (or p84 (not p79) p47) (or (not p37) p105 p27) (or p34 (not p17) p64) (or (not p104) (not p67) p116) (or (not p89) p23 (not p3)) (or p74 p12 (not p45)) (or (not p58) p5 (not p21)) (or p40 p30 (not p67)) (or (not p95) (not p112) (not p37)) (or p56 p118 (not p14)) (or (not p88) p52 p110) (or p107 (not p112) (not p76)) (or (not p60) (not p50) p10) (or (not p58) p90 (not p76)) (or p64 (not p54) (not p26)) (or p55 p47 p52) (or (not p57) p40 p1) (or p30 p35 p18) (or (not p85) p26 (not p39)) (or p14 (not p84) (not p90)) (or (not p101) p95 p110) (or (not p72) (not p61) (not p43)) (or p12 p93 (not p83)) (or p21 (not p70) (not p79)) (or p57 p53 p13) (or p88 (not p27) (not p27)) (or p3 (not p93) p119) (or p33 p57 p15) (or (not p112) p107 p16) (or p43 (not p10) p81) (or (not p65) p83 (not p99)) (or p62 p102 p110) (or p1 (not p97) p86) (or p45 (not p60) p66) (or (not p3) (not p45) (not p114)) (or p41 (not p108) (not p68)) (or p67 p36 p10) (or p60 (not p104) (not p55)) (or (not p80) p100 (not p82)) (or (not p12) (not p68) p10) (or (not p53) p71 p35) (or p24 p54 (not p39)) (or p50 p111 (not p7)) (or (not p9) p59 (not p22)) (or p7 p59 (not p22)) (or p22 p112 (not p104)) (or (not p89) (not p92) (not p61)) (or (not p119) p72 (not p9)) (or (not p2) (not p99) p21) (or p5 p59 (not p38)) (or (not p117) (not p31) (not p104)) (or p9 (not p22) p114) (or p80 (not p65) p27) (or p64 (not p12) (not p6)) (or p88 (not p17) (not p26)) (or p13 p84 (not p10)) (or p40 p15 p62) (or p83 p56 (not p93)) (or p46 (not p47) (not p32)) (or p57 (not p87) (not p104)) (or (not p97) p26 (not p64)) (or p1 (not p51) (not p26)) (or p74 (not p37) (not p9)) (or p42 p34 (not p70)) (or (not p8) (not p89) (not p99)) (or p66 (not p49) (not p26)) (or (not p70) p22 (not p108)) (or (not p30) p13 (not p106)) (or (not p105) p86 (not p95)) (or p26 p18 (not p35)) (or p22 (not p89) p109) (or (not p0) (not p64) (not p104)) (or (not p55) p63 (not p114)) (or p116 (not p71) p32) (or p9 (not p18) p116) (or (not p82) p11 p28) (or (not p73) p51 p60) (or (not p62) p67 (not p4)) (or p37 p91 p98) (or p69 (not p71) (not p109)) (or (not p19) (not p36) (not p37)) (or p55 p100 p26) (or p22 p118 (not p16)) (or p14 p20 (not p76)) (or (not p20) (not p109) (not p4)) (or (not p12) (not p8) p41) (or (not p83) (not p2) p77) (or (not p99) (not p38) (not p75)) (or p106 (not p80) (not p5)) (or p112 p36 p13) (or (not p21) p30 p68) (or p3 (not p74) p2) (or p7 (not p71) p87) (or p2 (not p87) p112) (or p108 (not p117) p103) (or (not p10) (not p58) (not p108)) (or p94 p21 (not p25)) (or p48 (not p5) p48) (or p15 p39 (not p28)) (or (not p98) p32 p103) (or p95 (not p8) p87) (or p33 p70 p67) (or (not p64) (not p48) p3) (or (not p103) (not p80) p27) (or (not p44) (not p13) p69) (or p89 (not p22) (not p70)) (or (not p34) (not p65) p49) (or (not p114) (not p110) (not p65)) (or p38 p103 (not p39)) (or (not p30) (not p47) (not p36)) (or (not p40) p48 p12) (or p15 p63 (not p84)) (or (not p72) p45 p36) (or p96 (not p10) (not p58)) (or (not p27) (not p5) p11) (or (not p18) (not p108) (not p116)) (or (not p55) (not p16) (not p102)) (or (not p86) (not p60) p54) (or p31 (not p82) (not p104)) (or p66 p105 (not p78)) (or (not p11) p21 (not p23)) (or p59 p68 p56) (or p59 p103 (not p29)) (or p81 p61 p97) (or (not p46) p85 p74) (or (not p0) (not p10) (not p1)) (or (not p107) (not p9) (not p113)) (or p75 p65 p27) (or p71 p87 (not p91)) (or (not p115) p67 (not p73)) (or p59 (not p93) (not p85)) (or (not p3) (not p68) (not p74)) (or (not p114) (not p102) (not p78)) (or (not p21) p32 p93) (or (not p66) (not p70) (not p119)) (or p61 p6 p109) (or (not p94) (not p4) p24) (or (not p74) (not p110) p29) (or (not p48) (not p87) p105) (or (not p6) p40 p106) (or (not p35) p99 (not p117)) (or (not p82) (not p80) (not p76)) (or (not p30) p38 (not p55)) (or p119 (not p29) p26) (or p71 (not p75) (not p94)) (or (not p21) (not p48) (not p105)) (or p96 (not p46) (not p12)) (or (not p63) p66 (not p31)) (or (not p28) p13 (not p68)) (or (not p67) (not p67) p107) (or p73 p39 (not p40)) (or (not p87) (not p25) p15) (or (not p41) p11 (not p54)) (or (not p41) p59 (not p74)) (or p36 (not p13) (not p8)) (or (not p72) (not p51) p82) (or p11 (not p41) (not p21)) (or p0 (not p40) (not p9)) (or (not p2) (not p44) p34) (or p89 p109 p7) (or p118 (not p68) p48) (or p80 (not p23) (not p103)) (or p5 p52 p114) (or p20 (not p26) (not p100)) (or p28 (not p37) (not p31)) (or p98 (not p12) (not p92)) (or p72 (not p101) (not p62)) (or (not p87) p46 p76) (or (not p98) (not p50) p87) (or (not p108) p68 (not p113)) (or p112 (not p113) (not p50)) (or p16 p91 p98) (or (not p18) p82 p103) (or p93 p98 p1) (or (not p58) p56 (not p24)) (or p25 (not p61) (not p27)) (or p2 p18 p95) (or (not p49) (not p18) (not p12)) (or (not p18) (not p117) (not p113)) (or p98 p104 p73) (or p8 (not p56) (not p3)) (or p79 (not p75) p76) (or p38 p92 p112) (or (not p13) (not p58) (not p43)) (or (not p38) (not p44) p80) (or (not p93) (not p62) (not p86)) (or p69 p6 p113) (or (not p20) p43 (not p41)) (or (not p8) (not p118) (not p107)) (or p70 (not p117) p90) (or p71 (not p42) (not p14)) (or (not p47) (not p48) p36) (or p40 p96 p9) (or p90 p7 p118) (or (not p106) p55 p105) (or p97 (not p64) p12) (or p59 p8 p7) (or (not p52) (not p23) p85) (or p21 (not p3) p2) (or (not p81) (not p102) p11) (or (not p91) (not p90) p47) (or (not p105) p27 p118) (or (not p21) p26 (not p87)) (or p5 p101 p30) (or p105 p16 (not p20)) (or (not p20) p73 p118) (or p18 p36 (not p107)) (or p2 p10 (not p19)) (or (not p6) (not p86) p19) (or (not p48) (not p5) (not p72)) (or (not p13) (not p119) (not p28)) (or (not p40) (not p20) (not p93)) (or (not p69) p38 p7) (or (not p93) p119 (not p67)) (or p112 p62 p61) (or (not p41) (not p7) (not p92)) (or (not p55) (not p13) p24) (or (not p3) (not p65) p2) (or p41 (not p99) (not p76)) (or p50 (not p30) p65) (or p19 (not p104) p65) (or (not p29) (not p5) (not p2)))
)
(check-sat)
(get-model)
